!File created by the GAMESS Input Deck Generator Plugin for Avogadro
 $BASIS GBASIS=STO NGAUSS=3 $END
 $CONTRL SCFTYP=RHF RUNTYP=SADPOINT mult=1  ICHARG=0 $END
 $STATPT hssend=.t. OPTTOL=0.0005 NSTEP=50 $END
 $STATPT HESS=calc ihrep=5 $END
 $FORCE nvib=2 $END
 $ZMAT DLC=.t. auto=.t. nonvdw(1)=1,6,3,4 $END
!$ZMAT IFZMAT(1)=1,1,6,1,3,4 fvalue(1)=2.00,2.00 $END

 $DATA 
Title
C1
C     6.0     3.52506018    -2.00637770    -2.40871239
C     6.0     3.01324296    -0.70512563    -2.21689916
C     6.0     3.06535339    -0.14800915    -0.91973722
C     6.0     4.84959459    -0.07578513    -0.47099718
C     6.0     5.28976870    -1.40606797    -0.63551569
C     6.0     5.31377649    -1.89143181    -1.96317744
C     6.0     5.89099741    -0.93040419    -2.98164654
C     6.0     5.93900776     0.36548024    -2.75692010
C     6.0     5.41307449     0.95755601    -1.46868515
O     8.0     5.42690849     2.15708423    -1.23132479
H     1.0     3.52390647    -2.38811922    -3.42539716
H     1.0     3.22085810    -2.76901436    -1.69891477
H     1.0     2.99775267    -0.03108952    -3.06234384
H     1.0     2.72339940     0.87741071    -0.81238973
H     1.0     2.71534276    -0.76969981    -0.10138757
H     1.0     4.81839418     0.31187236     0.54435575
H     1.0     5.21505833    -2.10165572     0.18945569
H     1.0     5.64998150    -2.91578031    -2.10164356
H     1.0     6.26279879    -1.35659420    -3.90695643
H     1.0     6.36639690     1.05919075    -3.46913457
 $END
